p edge 380 2280
e 1 88
e 1 95
e 1 98
e 1 157
e 1 205
e 1 352
e 2 68
e 2 89
e 2 123
e 2 279
e 2 287
e 2 353
e 3 34
e 3 91
e 3 151
e 3 173
e 3 215
e 3 236
e 4 38
e 4 110
e 4 167
e 4 271
e 4 294
e 4 376
e 5 3
e 5 99
e 5 172
e 5 238
e 5 273
e 5 341
e 6 69
e 6 77
e 6 167
e 6 219
e 6 324
e 6 372
e 7 37
e 7 178
e 7 227
e 7 334
e 7 337
e 7 373
e 8 27
e 8 80
e 8 114
e 8 116
e 8 127
e 8 202
e 9 33
e 9 86
e 9 130
e 9 311
e 9 328
e 9 380
e 10 28
e 10 197
e 10 242
e 10 279
e 10 297
e 10 321
e 11 32
e 11 35
e 11 70
e 11 102
e 11 118
e 11 169
e 12 47
e 12 203
e 12 234
e 12 253
e 12 262
e 12 273
e 13 9
e 13 51
e 13 141
e 13 177
e 13 207
e 13 215
e 14 71
e 14 96
e 14 209
e 14 292
e 14 296
e 14 378
e 15 38
e 15 50
e 15 122
e 15 123
e 15 239
e 15 294
e 16 20
e 16 65
e 16 80
e 16 88
e 16 354
e 16 363
e 17 19
e 17 98
e 17 132
e 17 135
e 17 298
e 17 361
e 18 15
e 18 116
e 18 154
e 18 154
e 18 281
e 18 318
e 19 171
e 19 245
e 19 277
e 19 287
e 19 295
e 19 368
e 20 103
e 20 165
e 20 311
e 20 347
e 20 354
e 20 376
e 21 57
e 21 96
e 21 237
e 21 287
e 21 309
e 21 317
e 22 4
e 22 39
e 22 49
e 22 116
e 22 317
e 22 354
e 23 33
e 23 69
e 23 71
e 23 184
e 23 228
e 23 295
e 24 22
e 24 44
e 24 52
e 24 85
e 24 175
e 24 187
e 25 6
e 25 161
e 25 216
e 25 254
e 25 288
e 25 295
e 26 17
e 26 65
e 26 130
e 26 151
e 26 248
e 26 252
e 27 39
e 27 103
e 27 154
e 27 318
e 27 355
e 27 367
e 28 39
e 28 41
e 28 53
e 28 79
e 28 126
e 28 338
e 29 115
e 29 121
e 29 128
e 29 246
e 29 279
e 29 306
e 30 42
e 30 85
e 30 88
e 30 149
e 30 308
e 30 366
e 31 35
e 31 84
e 31 166
e 31 202
e 31 299
e 31 380
e 32 75
e 32 106
e 32 211
e 32 252
e 32 261
e 32 378
e 33 76
e 33 119
e 33 145
e 33 213
e 33 234
e 33 297
e 34 159
e 34 178
e 34 191
e 34 244
e 34 308
e 34 328
e 35 72
e 35 76
e 35 174
e 35 199
e 35 329
e 35 346
e 36 39
e 36 54
e 36 63
e 36 203
e 36 205
e 36 299
e 37 1
e 37 84
e 37 97
e 37 97
e 37 258
e 37 332
e 38 56
e 38 60
e 38 129
e 38 174
e 38 279
e 38 343
e 39 43
e 39 45
e 39 66
e 39 270
e 39 278
e 39 345
e 40 32
e 40 162
e 40 162
e 40 181
e 40 235
e 40 365
e 41 38
e 41 73
e 41 136
e 41 211
e 41 246
e 41 335
e 42 34
e 42 118
e 42 126
e 42 135
e 42 183
e 42 280
e 43 34
e 43 118
e 43 253
e 43 265
e 43 314
e 43 377
e 44 68
e 44 185
e 44 291
e 44 319
e 44 336
e 44 370
e 45 110
e 45 112
e 45 189
e 45 317
e 45 324
e 45 373
e 46 102
e 46 197
e 46 227
e 46 228
e 46 244
e 46 282
e 47 9
e 47 37
e 47 55
e 47 195
e 47 300
e 47 339
e 48 50
e 48 173
e 48 176
e 48 206
e 48 236
e 48 324
e 49 76
e 49 164
e 49 176
e 49 234
e 49 257
e 49 332
e 50 15
e 50 60
e 50 71
e 50 161
e 50 172
e 50 315
e 51 43
e 51 239
e 51 294
e 51 303
e 51 351
e 51 351
e 52 35
e 52 65
e 52 72
e 52 110
e 52 134
e 52 262
e 53 36
e 53 38
e 53 50
e 53 61
e 53 193
e 53 362
e 54 39
e 54 146
e 54 149
e 54 151
e 54 202
e 54 300
e 55 22
e 55 114
e 55 218
e 55 257
e 55 261
e 55 369
e 56 41
e 56 47
e 56 48
e 56 111
e 56 255
e 56 358
e 57 74
e 57 154
e 57 173
e 57 196
e 57 347
e 57 377
e 58 130
e 58 159
e 58 179
e 58 203
e 58 230
e 58 380
e 59 6
e 59 141
e 59 184
e 59 194
e 59 202
e 59 275
e 60 23
e 60 240
e 60 249
e 60 287
e 60 312
e 60 323
e 61 112
e 61 132
e 61 168
e 61 228
e 61 252
e 61 282
e 62 6
e 62 100
e 62 147
e 62 210
e 62 248
e 62 264
e 63 3
e 63 86
e 63 115
e 63 259
e 63 300
e 63 325
e 64 56
e 64 61
e 64 148
e 64 149
e 64 191
e 64 282
e 65 1
e 65 96
e 65 102
e 65 154
e 65 259
e 65 373
e 66 10
e 66 62
e 66 177
e 66 202
e 66 212
e 66 316
e 67 79
e 67 97
e 67 175
e 67 185
e 67 196
e 67 348
e 68 19
e 68 56
e 68 88
e 68 128
e 68 270
e 68 282
e 69 62
e 69 64
e 69 139
e 69 139
e 69 338
e 69 368
e 70 20
e 70 26
e 70 106
e 70 124
e 70 229
e 70 345
e 71 122
e 71 230
e 71 236
e 71 345
e 71 345
e 71 370
e 72 124
e 72 166
e 72 194
e 72 231
e 72 315
e 72 376
e 73 9
e 73 55
e 73 130
e 73 204
e 73 225
e 73 335
e 74 55
e 74 114
e 74 141
e 74 197
e 74 240
e 74 252
e 75 31
e 75 88
e 75 128
e 75 241
e 75 313
e 75 379
e 76 74
e 76 85
e 76 174
e 76 282
e 76 304
e 76 343
e 77 64
e 77 162
e 77 211
e 77 247
e 77 329
e 77 357
e 78 11
e 78 89
e 78 96
e 78 134
e 78 178
e 78 183
e 79 2
e 79 12
e 79 89
e 79 237
e 79 310
e 79 374
e 80 61
e 80 81
e 80 161
e 80 169
e 80 198
e 80 286
e 81 21
e 81 149
e 81 186
e 81 236
e 81 238
e 81 351
e 82 17
e 82 196
e 82 227
e 82 273
e 82 290
e 82 325
e 83 47
e 83 76
e 83 110
e 83 139
e 83 185
e 83 237
e 84 28
e 84 107
e 84 241
e 84 287
e 84 298
e 84 374
e 85 49
e 85 82
e 85 100
e 85 280
e 85 283
e 85 373
e 86 103
e 86 127
e 86 190
e 86 221
e 86 233
e 86 363
e 87 4
e 87 63
e 87 98
e 87 244
e 87 248
e 87 364
e 88 48
e 88 140
e 88 188
e 88 237
e 88 312
e 88 313
e 89 8
e 89 126
e 89 238
e 89 279
e 89 310
e 89 376
e 90 22
e 90 25
e 90 35
e 90 98
e 90 105
e 90 129
e 91 184
e 91 202
e 91 214
e 91 262
e 91 265
e 91 315
e 92 62
e 92 80
e 92 102
e 92 209
e 92 235
e 92 307
e 93 16
e 93 65
e 93 230
e 93 239
e 93 271
e 93 320
e 94 39
e 94 63
e 94 140
e 94 208
e 94 308
e 94 369
e 95 71
e 95 128
e 95 215
e 95 329
e 95 333
e 95 355
e 96 20
e 96 53
e 96 103
e 96 210
e 96 260
e 96 320
e 97 13
e 97 42
e 97 163
e 97 229
e 97 266
e 97 369
e 98 53
e 98 102
e 98 160
e 98 182
e 98 239
e 98 319
e 99 15
e 99 84
e 99 222
e 99 313
e 99 372
e 99 378
e 100 13
e 100 18
e 100 29
e 100 137
e 100 200
e 100 225
e 101 141
e 101 223
e 101 243
e 101 269
e 101 355
e 101 362
e 102 6
e 102 57
e 102 59
e 102 80
e 102 93
e 102 302
e 103 26
e 103 36
e 103 107
e 103 160
e 103 286
e 103 364
e 104 53
e 104 154
e 104 247
e 104 266
e 104 275
e 104 327
e 105 30
e 105 129
e 105 197
e 105 199
e 105 237
e 105 306
e 106 150
e 106 164
e 106 169
e 106 214
e 106 265
e 106 274
e 107 38
e 107 39
e 107 126
e 107 157
e 107 176
e 107 192
e 108 49
e 108 129
e 108 198
e 108 250
e 108 263
e 108 373
e 109 1
e 109 46
e 109 95
e 109 205
e 109 298
e 109 348
e 110 27
e 110 81
e 110 84
e 110 86
e 110 107
e 110 350
e 111 72
e 111 124
e 111 149
e 111 191
e 111 283
e 111 333
e 112 116
e 112 119
e 112 226
e 112 333
e 112 345
e 112 369
e 113 9
e 113 141
e 113 163
e 113 265
e 113 302
e 113 351
e 114 6
e 114 71
e 114 147
e 114 162
e 114 203
e 114 258
e 115 130
e 115 192
e 115 225
e 115 233
e 115 233
e 115 347
e 116 51
e 116 134
e 116 171
e 116 201
e 116 242
e 116 305
e 117 6
e 117 44
e 117 77
e 117 128
e 117 192
e 117 218
e 118 29
e 118 53
e 118 144
e 118 180
e 118 318
e 118 375
e 119 292
e 119 316
e 119 317
e 119 331
e 119 346
e 119 376
e 120 5
e 120 48
e 120 190
e 120 260
e 120 349
e 120 354
e 121 1
e 121 10
e 121 58
e 121 98
e 121 194
e 121 206
e 122 88
e 122 108
e 122 250
e 122 293
e 122 298
e 122 326
e 123 89
e 123 185
e 123 196
e 123 242
e 123 293
e 123 369
e 124 2
e 124 19
e 124 71
e 124 243
e 124 262
e 124 375
e 125 100
e 125 155
e 125 231
e 125 318
e 125 348
e 125 375
e 126 122
e 126 142
e 126 189
e 126 276
e 126 296
e 126 322
e 127 84
e 127 95
e 127 121
e 127 156
e 127 192
e 127 257
e 128 136
e 128 163
e 128 201
e 128 202
e 128 271
e 128 378
e 129 1
e 129 32
e 129 76
e 129 185
e 129 273
e 129 331
e 130 142
e 130 158
e 130 160
e 130 271
e 130 336
e 130 358
e 131 115
e 131 201
e 131 219
e 131 237
e 131 300
e 131 304
e 132 36
e 132 157
e 132 179
e 132 201
e 132 256
e 132 305
e 133 18
e 133 36
e 133 68
e 133 95
e 133 186
e 133 343
e 134 154
e 134 172
e 134 288
e 134 329
e 134 354
e 134 378
e 135 40
e 135 66
e 135 111
e 135 186
e 135 251
e 135 284
e 136 28
e 136 146
e 136 163
e 136 169
e 136 304
e 136 323
e 137 54
e 137 65
e 137 188
e 137 209
e 137 228
e 137 279
e 138 13
e 138 46
e 138 117
e 138 134
e 138 283
e 138 310
e 139 88
e 139 106
e 139 113
e 139 140
e 139 178
e 139 252
e 140 5
e 140 70
e 140 105
e 140 188
e 140 207
e 140 240
e 141 2
e 141 136
e 141 194
e 141 196
e 141 234
e 141 298
e 142 16
e 142 32
e 142 33
e 142 98
e 142 217
e 142 364
e 143 36
e 143 116
e 143 129
e 143 285
e 143 351
e 143 368
e 144 9
e 144 24
e 144 45
e 144 261
e 144 292
e 144 294
e 145 73
e 145 91
e 145 130
e 145 214
e 145 306
e 145 314
e 146 13
e 146 145
e 146 169
e 146 268
e 146 288
e 146 369
e 147 86
e 147 151
e 147 186
e 147 206
e 147 239
e 147 302
e 148 1
e 148 19
e 148 183
e 148 259
e 148 290
e 148 364
e 149 107
e 149 200
e 149 204
e 149 226
e 149 290
e 149 352
e 150 87
e 150 132
e 150 208
e 150 234
e 150 262
e 150 326
e 151 1
e 151 65
e 151 148
e 151 160
e 151 211
e 151 302
e 152 18
e 152 82
e 152 144
e 152 209
e 152 230
e 152 313
e 153 53
e 153 139
e 153 154
e 153 224
e 153 348
e 153 349
e 154 1
e 154 150
e 154 246
e 154 259
e 154 321
e 154 327
e 155 58
e 155 144
e 155 231
e 155 260
e 155 264
e 155 283
e 156 55
e 156 202
e 156 256
e 156 309
e 156 318
e 156 355
e 157 73
e 157 161
e 157 185
e 157 198
e 157 317
e 157 379
e 158 16
e 158 27
e 158 73
e 158 154
e 158 166
e 158 276
e 159 80
e 159 169
e 159 189
e 159 215
e 159 335
e 159 339
e 160 46
e 160 46
e 160 68
e 160 100
e 160 190
e 160 326
e 161 40
e 161 45
e 161 122
e 161 190
e 161 195
e 161 266
e 162 11
e 162 157
e 162 176
e 162 196
e 162 242
e 162 362
e 163 50
e 163 104
e 163 108
e 163 139
e 163 171
e 163 358
e 164 111
e 164 123
e 164 336
e 164 362
e 164 365
e 164 368
e 165 33
e 165 221
e 165 294
e 165 305
e 165 307
e 165 352
e 166 26
e 166 83
e 166 122
e 166 163
e 166 319
e 166 374
e 167 27
e 167 37
e 167 70
e 167 282
e 167 296
e 167 321
e 168 35
e 168 186
e 168 259
e 168 302
e 168 305
e 168 313
e 169 13
e 169 93
e 169 154
e 169 166
e 169 195
e 169 304
e 170 14
e 170 45
e 170 91
e 170 200
e 170 276
e 170 352
e 171 3
e 171 62
e 171 77
e 171 80
e 171 269
e 171 356
e 172 10
e 172 67
e 172 197
e 172 223
e 172 292
e 172 354
e 173 49
e 173 64
e 173 124
e 173 208
e 173 255
e 173 360
e 174 19
e 174 53
e 174 78
e 174 82
e 174 260
e 174 336
e 175 102
e 175 138
e 175 153
e 175 157
e 175 173
e 175 296
e 176 22
e 176 59
e 176 112
e 176 124
e 176 298
e 176 311
e 177 169
e 177 193
e 177 254
e 177 265
e 177 273
e 177 337
e 178 58
e 178 161
e 178 227
e 178 281
e 178 345
e 178 374
e 179 24
e 179 150
e 179 183
e 179 231
e 179 232
e 179 280
e 180 63
e 180 77
e 180 97
e 180 105
e 180 298
e 180 349
e 181 70
e 181 77
e 181 78
e 181 211
e 181 214
e 181 219
e 182 41
e 182 67
e 182 149
e 182 190
e 182 202
e 182 301
e 183 16
e 183 51
e 183 82
e 183 130
e 183 133
e 183 186
e 184 120
e 184 150
e 184 180
e 184 188
e 184 310
e 184 335
e 185 153
e 185 162
e 185 186
e 185 254
e 185 295
e 185 334
e 186 62
e 186 150
e 186 154
e 186 163
e 186 225
e 186 226
e 187 104
e 187 151
e 187 155
e 187 229
e 187 286
e 187 315
e 188 82
e 188 128
e 188 142
e 188 214
e 188 293
e 188 304
e 189 111
e 189 156
e 189 224
e 189 240
e 189 314
e 189 315
e 190 137
e 190 194
e 190 234
e 190 260
e 190 281
e 190 343
e 191 19
e 191 43
e 191 75
e 191 149
e 191 154
e 191 378
e 192 130
e 192 200
e 192 222
e 192 273
e 192 284
e 192 334
e 193 134
e 193 209
e 193 237
e 193 356
e 193 363
e 193 372
e 194 79
e 194 165
e 194 242
e 194 312
e 194 340
e 194 378
e 195 75
e 195 99
e 195 277
e 195 295
e 195 303
e 195 347
e 196 67
e 196 240
e 196 248
e 196 254
e 196 280
e 196 309
e 197 23
e 197 106
e 197 156
e 197 168
e 197 255
e 197 290
e 198 16
e 198 68
e 198 124
e 198 193
e 198 267
e 198 346
e 199 34
e 199 113
e 199 118
e 199 298
e 199 316
e 199 348
e 200 49
e 200 61
e 200 214
e 200 296
e 200 302
e 200 327
e 201 24
e 201 70
e 201 86
e 201 88
e 201 100
e 201 364
e 202 7
e 202 11
e 202 39
e 202 323
e 202 353
e 202 370
e 203 121
e 203 183
e 203 286
e 203 288
e 203 357
e 203 379
e 204 31
e 204 100
e 204 138
e 204 158
e 204 195
e 204 316
e 205 73
e 205 137
e 205 225
e 205 249
e 205 269
e 205 342
e 206 11
e 206 21
e 206 35
e 206 82
e 206 182
e 206 377
e 207 51
e 207 122
e 207 175
e 207 274
e 207 316
e 207 317
e 208 133
e 208 140
e 208 189
e 208 198
e 208 235
e 208 247
e 209 34
e 209 208
e 209 211
e 209 321
e 209 375
e 209 377
e 210 63
e 210 78
e 210 226
e 210 281
e 210 301
e 210 380
e 211 76
e 211 174
e 211 214
e 211 225
e 211 292
e 211 344
e 212 158
e 212 186
e 212 195
e 212 246
e 212 288
e 212 354
e 213 24
e 213 40
e 213 62
e 213 315
e 213 321
e 213 366
e 214 26
e 214 203
e 214 210
e 214 272
e 214 350
e 214 351
e 215 64
e 215 66
e 215 220
e 215 328
e 215 360
e 215 366
e 216 43
e 216 102
e 216 269
e 216 286
e 216 347
e 216 363
e 217 30
e 217 175
e 217 282
e 217 289
e 217 335
e 217 346
e 218 82
e 218 94
e 218 179
e 218 180
e 218 187
e 218 368
e 219 53
e 219 82
e 219 114
e 219 184
e 219 259
e 219 308
e 220 20
e 220 144
e 220 147
e 220 191
e 220 192
e 220 209
e 221 6
e 221 58
e 221 160
e 221 175
e 221 219
e 221 264
e 222 28
e 222 48
e 222 157
e 222 295
e 222 329
e 222 366
e 223 130
e 223 139
e 223 139
e 223 254
e 223 353
e 223 362
e 224 12
e 224 12
e 224 92
e 224 145
e 224 290
e 224 313
e 225 149
e 225 238
e 225 320
e 225 321
e 225 324
e 225 342
e 226 66
e 226 70
e 226 113
e 226 339
e 226 339
e 226 348
e 227 26
e 227 123
e 227 233
e 227 263
e 227 336
e 227 350
e 228 96
e 228 108
e 228 115
e 228 162
e 228 181
e 228 271
e 229 68
e 229 117
e 229 121
e 229 135
e 229 352
e 229 369
e 230 33
e 230 129
e 230 178
e 230 220
e 230 241
e 230 284
e 231 183
e 231 213
e 231 288
e 231 295
e 231 326
e 231 361
e 232 31
e 232 40
e 232 118
e 232 150
e 232 197
e 232 291
e 233 18
e 233 44
e 233 55
e 233 100
e 233 166
e 233 235
e 234 176
e 234 199
e 234 243
e 234 261
e 234 357
e 234 359
e 235 46
e 235 73
e 235 75
e 235 87
e 235 294
e 235 310
e 236 41
e 236 46
e 236 86
e 236 191
e 236 197
e 236 357
e 237 106
e 237 288
e 237 298
e 237 334
e 237 336
e 237 373
e 238 6
e 238 20
e 238 143
e 238 235
e 238 327
e 238 370
e 239 10
e 239 37
e 239 64
e 239 119
e 239 265
e 239 309
e 240 78
e 240 145
e 240 236
e 240 253
e 240 301
e 240 326
e 241 7
e 241 82
e 241 123
e 241 182
e 241 313
e 241 320
e 242 72
e 242 127
e 242 168
e 242 222
e 242 296
e 242 307
e 243 20
e 243 21
e 243 192
e 243 215
e 243 299
e 243 317
e 244 201
e 244 245
e 244 266
e 244 306
e 244 326
e 244 346
e 245 64
e 245 221
e 245 289
e 245 308
e 245 317
e 245 329
e 246 14
e 246 34
e 246 114
e 246 185
e 246 258
e 246 266
e 247 103
e 247 160
e 247 192
e 247 273
e 247 354
e 247 379
e 248 106
e 248 111
e 248 191
e 248 209
e 248 220
e 248 370
e 249 174
e 249 187
e 249 219
e 249 238
e 249 238
e 249 296
e 250 45
e 250 100
e 250 171
e 250 180
e 250 204
e 250 307
e 251 78
e 251 116
e 251 127
e 251 191
e 251 200
e 251 336
e 252 45
e 252 213
e 252 233
e 252 240
e 252 312
e 252 326
e 253 12
e 253 81
e 253 210
e 253 312
e 253 322
e 253 328
e 254 42
e 254 102
e 254 271
e 254 285
e 254 321
e 254 377
e 255 64
e 255 124
e 255 131
e 255 178
e 255 215
e 255 352
e 256 57
e 256 79
e 256 105
e 256 163
e 256 164
e 256 228
e 257 38
e 257 118
e 257 131
e 257 194
e 257 207
e 257 241
e 258 70
e 258 74
e 258 114
e 258 194
e 258 200
e 258 256
e 259 61
e 259 111
e 259 122
e 259 202
e 259 214
e 259 377
e 260 84
e 260 93
e 260 217
e 260 255
e 260 315
e 260 330
e 261 91
e 261 107
e 261 145
e 261 181
e 261 340
e 261 362
e 262 61
e 262 82
e 262 153
e 262 208
e 262 239
e 262 270
e 263 100
e 263 117
e 263 178
e 263 254
e 263 307
e 263 380
e 264 94
e 264 99
e 264 115
e 264 186
e 264 275
e 264 280
e 265 11
e 265 102
e 265 163
e 265 198
e 265 307
e 265 316
e 266 22
e 266 83
e 266 129
e 266 246
e 266 250
e 266 313
e 267 23
e 267 73
e 267 134
e 267 205
e 267 217
e 267 227
e 268 4
e 268 73
e 268 175
e 268 316
e 268 342
e 268 372
e 269 11
e 269 30
e 269 64
e 269 72
e 269 352
e 269 371
e 270 135
e 270 178
e 270 236
e 270 265
e 270 280
e 270 353
e 271 70
e 271 143
e 271 188
e 271 328
e 271 351
e 271 377
e 272 77
e 272 149
e 272 217
e 272 225
e 272 263
e 272 308
e 273 10
e 273 65
e 273 153
e 273 225
e 273 236
e 273 355
e 274 57
e 274 63
e 274 87
e 274 90
e 274 171
e 274 308
e 275 111
e 275 121
e 275 163
e 275 246
e 275 300
e 275 380
e 276 62
e 276 130
e 276 239
e 276 274
e 276 356
e 276 375
e 277 60
e 277 64
e 277 139
e 277 201
e 277 249
e 277 303
e 278 58
e 278 122
e 278 128
e 278 136
e 278 186
e 278 368
e 279 85
e 279 210
e 279 212
e 279 230
e 279 274
e 279 292
e 280 4
e 280 24
e 280 90
e 280 137
e 280 180
e 280 255
e 281 10
e 281 31
e 281 137
e 281 144
e 281 221
e 281 228
e 282 22
e 282 163
e 282 248
e 282 252
e 282 254
e 282 331
e 283 23
e 283 149
e 283 167
e 283 175
e 283 227
e 283 252
e 284 30
e 284 46
e 284 72
e 284 162
e 284 199
e 284 259
e 285 10
e 285 48
e 285 152
e 285 158
e 285 224
e 285 301
e 286 11
e 286 99
e 286 209
e 286 276
e 286 282
e 286 361
e 287 38
e 287 40
e 287 56
e 287 65
e 287 214
e 287 357
e 288 31
e 288 76
e 288 160
e 288 189
e 288 228
e 288 230
e 289 156
e 289 209
e 289 211
e 289 212
e 289 341
e 289 349
e 290 5
e 290 101
e 290 225
e 290 259
e 290 283
e 290 347
e 291 18
e 291 188
e 291 225
e 291 241
e 291 268
e 291 377
e 292 69
e 292 73
e 292 84
e 292 274
e 292 278
e 292 290
e 293 32
e 293 83
e 293 107
e 293 112
e 293 283
e 293 333
e 294 24
e 294 49
e 294 110
e 294 191
e 294 313
e 294 376
e 295 101
e 295 135
e 295 212
e 295 312
e 295 373
e 295 378
e 296 109
e 296 138
e 296 168
e 296 202
e 296 231
e 296 306
e 297 12
e 297 100
e 297 118
e 297 250
e 297 358
e 297 376
e 298 26
e 298 47
e 298 154
e 298 261
e 298 276
e 298 277
e 299 177
e 299 180
e 299 211
e 299 246
e 299 250
e 299 294
e 300 23
e 300 40
e 300 64
e 300 114
e 300 114
e 300 163
e 301 14
e 301 39
e 301 46
e 301 121
e 301 263
e 301 367
e 302 64
e 302 96
e 302 119
e 302 194
e 302 211
e 302 332
e 303 18
e 303 170
e 303 172
e 303 222
e 303 260
e 303 329
e 304 6
e 304 34
e 304 43
e 304 143
e 304 171
e 304 247
e 305 8
e 305 168
e 305 175
e 305 218
e 305 255
e 305 322
e 306 91
e 306 214
e 306 245
e 306 277
e 306 283
e 306 358
e 307 65
e 307 115
e 307 125
e 307 245
e 307 328
e 307 356
e 308 156
e 308 188
e 308 196
e 308 233
e 308 251
e 308 298
e 309 14
e 309 26
e 309 104
e 309 113
e 309 135
e 309 340
e 310 85
e 310 90
e 310 121
e 310 292
e 310 318
e 310 352
e 311 15
e 311 114
e 311 148
e 311 221
e 311 296
e 311 344
e 312 5
e 312 81
e 312 104
e 312 125
e 312 223
e 312 320
e 313 109
e 313 217
e 313 282
e 313 284
e 313 287
e 313 321
e 314 59
e 314 91
e 314 152
e 314 265
e 314 342
e 314 372
e 315 40
e 315 85
e 315 96
e 315 136
e 315 143
e 315 297
e 316 172
e 316 201
e 316 220
e 316 262
e 316 267
e 316 356
e 317 21
e 317 76
e 317 132
e 317 199
e 317 236
e 317 377
e 318 135
e 318 244
e 318 248
e 318 298
e 318 305
e 318 339
e 319 38
e 319 75
e 319 128
e 319 131
e 319 141
e 319 172
e 320 68
e 320 189
e 320 258
e 320 332
e 320 339
e 320 371
e 321 26
e 321 106
e 321 135
e 321 219
e 321 226
e 321 372
e 322 65
e 322 109
e 322 201
e 322 201
e 322 270
e 322 318
e 323 8
e 323 179
e 323 197
e 323 221
e 323 245
e 323 377
e 324 13
e 324 18
e 324 103
e 324 142
e 324 145
e 324 349
e 325 140
e 325 152
e 325 206
e 325 234
e 325 279
e 325 363
e 326 9
e 326 58
e 326 118
e 326 184
e 326 263
e 326 307
e 327 79
e 327 92
e 327 114
e 327 139
e 327 221
e 327 356
e 328 76
e 328 138
e 328 158
e 328 318
e 328 320
e 328 337
e 329 25
e 329 90
e 329 184
e 329 276
e 329 317
e 329 345
e 330 38
e 330 98
e 330 115
e 330 143
e 330 328
e 330 338
e 331 6
e 331 88
e 331 237
e 331 272
e 331 348
e 331 358
e 332 25
e 332 52
e 332 70
e 332 125
e 332 150
e 332 255
e 333 113
e 333 217
e 333 239
e 333 263
e 333 264
e 333 343
e 334 65
e 334 95
e 334 216
e 334 246
e 334 280
e 334 288
e 335 31
e 335 69
e 335 71
e 335 148
e 335 246
e 335 267
e 336 110
e 336 169
e 336 252
e 336 277
e 336 343
e 336 360
e 337 21
e 337 113
e 337 146
e 337 322
e 337 339
e 337 374
e 338 54
e 338 120
e 338 163
e 338 197
e 338 229
e 338 346
e 339 47
e 339 90
e 339 282
e 339 321
e 339 354
e 339 377
e 340 53
e 340 147
e 340 241
e 340 284
e 340 333
e 340 380
e 341 1
e 341 60
e 341 219
e 341 268
e 341 306
e 341 364
e 342 119
e 342 131
e 342 149
e 342 203
e 342 281
e 342 360
e 343 6
e 343 74
e 343 125
e 343 145
e 343 204
e 343 251
e 344 53
e 344 59
e 344 81
e 344 119
e 344 211
e 344 336
e 345 19
e 345 25
e 345 101
e 345 124
e 345 257
e 345 339
e 346 11
e 346 23
e 346 55
e 346 171
e 346 249
e 346 345
e 347 20
e 347 32
e 347 107
e 347 171
e 347 325
e 347 366
e 348 17
e 348 67
e 348 116
e 348 188
e 348 329
e 348 366
e 349 108
e 349 165
e 349 190
e 349 262
e 349 270
e 349 354
e 350 92
e 350 126
e 350 145
e 350 151
e 350 157
e 350 179
e 351 197
e 351 247
e 351 265
e 351 274
e 351 323
e 351 355
e 352 11
e 352 181
e 352 248
e 352 288
e 352 349
e 352 363
e 353 30
e 353 101
e 353 116
e 353 267
e 353 304
e 353 310
e 354 86
e 354 160
e 354 304
e 354 320
e 354 358
e 354 366
e 355 51
e 355 77
e 355 117
e 355 136
e 355 196
e 355 335
e 356 41
e 356 96
e 356 169
e 356 240
e 356 243
e 356 307
e 357 16
e 357 31
e 357 105
e 357 163
e 357 329
e 357 366
e 358 12
e 358 26
e 358 152
e 358 207
e 358 255
e 358 287
e 359 53
e 359 90
e 359 222
e 359 238
e 359 259
e 359 370
e 360 100
e 360 161
e 360 252
e 360 268
e 360 313
e 360 321
e 361 15
e 361 19
e 361 77
e 361 193
e 361 295
e 361 345
e 362 60
e 362 61
e 362 147
e 362 251
e 362 346
e 362 371
e 363 187
e 363 190
e 363 227
e 363 281
e 363 297
e 363 315
e 364 34
e 364 40
e 364 51
e 364 100
e 364 133
e 364 332
e 365 22
e 365 35
e 365 89
e 365 174
e 365 240
e 365 259
e 366 39
e 366 68
e 366 77
e 366 137
e 366 250
e 366 271
e 367 13
e 367 214
e 367 230
e 367 236
e 367 245
e 367 320
e 368 150
e 368 189
e 368 226
e 368 238
e 368 285
e 368 296
e 369 41
e 369 57
e 369 146
e 369 181
e 369 195
e 369 372
e 370 31
e 370 97
e 370 173
e 370 181
e 370 223
e 370 266
e 371 82
e 371 165
e 371 286
e 371 304
e 371 347
e 371 365
e 372 16
e 372 55
e 372 103
e 372 164
e 372 267
e 372 294
e 373 136
e 373 143
e 373 272
e 373 278
e 373 321
e 373 378
e 374 256
e 374 256
e 374 260
e 374 293
e 374 316
e 374 377
e 375 16
e 375 25
e 375 51
e 375 124
e 375 199
e 375 304
e 376 113
e 376 138
e 376 179
e 376 216
e 376 331
e 376 335
e 377 22
e 377 124
e 377 128
e 377 200
e 377 308
e 377 365
e 378 97
e 378 131
e 378 183
e 378 187
e 378 232
e 378 289
e 379 28
e 379 179
e 379 180
e 379 239
e 379 270
e 379 331
e 380 24
e 380 118
e 380 151
e 380 217
e 380 329
e 380 356
